400
[40,44,49,50,51,52,53,54,57,59,60,61,62,64,65,67,68,71,73,74,75,80,81,83,84,85,87,89,90,91,93,95,97,100,102,103,104,109,112,116,117,119,120,122,123,124,126,127,132,136,138,140,142,146,148,151,153,155,157,161,162,164,165,167,168,169,170,171,172,175,176,177,179,180,181,182,183,184,187,188,190,196,197,198,201,202,203,204,206,207,209,215,216,217,220,223,224,225,226,227,230,231,233,234,236,237,238,239,240,241,242,245,247,249,250,251,253,254,256,257,258,261,262,263,264,266,267,270,271,273,276,277]
[1,1,1,1,2,1,1,2,2,1,1,1,1,1,1,1,1,3,2,1,2,1,1,1,1,1,3,1,2,1,2,2,1,1,1,1,1,1,2,1,3,2,1,1,1,1,1,2,3,1,1,1,2,4,2,2,2,1,1,1,1,2,1,1,2,1,2,1,3,2,1,1,3,1,1,2,1,2,1,1,2,1,1,5,2,2,3,2,3,1,1,3,1,1,1,2,2,1,1,1,3,1,3,2,1,1,1,1,1,1,1,2,1,1,1,1,1,2,3,2,1,1,1,1,4,1,1,1,2,2,1,2]
